0 92 
1 99 
2 102 
3 109 
4 111 
5 110 
6 109 
7 108 
8 110 
9 107 
10 107 
11 104 
12 102 
13 104 
14 103 
15 98 
16 95 
17 94 
18 89 
19 91 
20 89 
21 84 
22 84 
23 81 
24 77 
25 74 
26 71 
27 72 
28 72 
29 68 
30 71 
31 70 
32 68 
33 67 
34 66 
35 64 
36 60 
37 60 
38 62 
39 60 
40 57 
41 56 
42 55 
43 52 
44 47 
45 44 
46 41 
47 38 
48 37 
49 36 
50 38 
51 34 
52 31 
53 29 
54 24 
55 24 
56 23 
57 25 
58 25 
59 24 
60 21 
61 20 
62 19 
63 19 
64 18 
65 16 
66 17 
67 18 
68 16 
69 15 
70 16 
71 14 
72 13 
73 12 
74 9 
75 10 
76 7 
77 7 
78 7 
79 6 
80 6 
81 4 
82 2 
83 2 
84 0 
85 0 
86 1 
87 0 
88 1 
89 0 
90 1 
91 0 
92 0 

